certificates/rado_a11_c213_N27.cnf
c Rad2 upper bound instance: x1 + 11*x2 - x3 = 213, interval [1,27]
p cnf 27 130
1 8 20 0
-1 -8 -20 0
1 19 21 0
-1 -19 -21 0
2 9 20 0
-2 -9 -20 0
2 20 21 0
-2 -20 -21 0
3 10 20 0
-3 -10 -20 0
3 21 0
-3 -21 0
4 11 20 0
-4 -11 -20 0
4 21 22 0
-4 -21 -22 0
1 5 19 0
-1 -5 -19 0
5 12 20 0
-5 -12 -20 0
5 21 23 0
-5 -21 -23 0
2 6 19 0
-2 -6 -19 0
6 13 20 0
-6 -13 -20 0
6 21 24 0
-6 -21 -24 0
3 7 19 0
-3 -7 -19 0
7 14 20 0
-7 -14 -20 0
7 21 25 0
-7 -21 -25 0
4 8 19 0
-4 -8 -19 0
8 15 20 0
-8 -15 -20 0
8 21 26 0
-8 -21 -26 0
5 9 19 0
-5 -9 -19 0
9 16 20 0
-9 -16 -20 0
9 21 27 0
-9 -21 -27 0
6 10 19 0
-6 -10 -19 0
10 17 20 0
-10 -17 -20 0
7 11 19 0
-7 -11 -19 0
11 18 20 0
-11 -18 -20 0
8 12 19 0
-8 -12 -19 0
12 19 20 0
-12 -19 -20 0
9 13 19 0
-9 -13 -19 0
13 20 0
-13 -20 0
10 14 19 0
-10 -14 -19 0
14 20 21 0
-14 -20 -21 0
11 15 19 0
-11 -15 -19 0
15 20 22 0
-15 -20 -22 0
1 16 18 0
-1 -16 -18 0
12 16 19 0
-12 -16 -19 0
16 20 23 0
-16 -20 -23 0
2 17 18 0
-2 -17 -18 0
13 17 19 0
-13 -17 -19 0
17 20 24 0
-17 -20 -24 0
3 18 0
-3 -18 0
14 18 19 0
-14 -18 -19 0
18 20 25 0
-18 -20 -25 0
4 18 19 0
-4 -18 -19 0
15 19 0
-15 -19 0
19 20 26 0
-19 -20 -26 0
5 18 20 0
-5 -18 -20 0
16 19 20 0
-16 -19 -20 0
20 27 0
-20 -27 0
6 18 21 0
-6 -18 -21 0
17 19 21 0
-17 -19 -21 0
7 18 22 0
-7 -18 -22 0
18 19 22 0
-18 -19 -22 0
8 18 23 0
-8 -18 -23 0
19 23 0
-19 -23 0
9 18 24 0
-9 -18 -24 0
19 20 24 0
-19 -20 -24 0
10 18 25 0
-10 -18 -25 0
19 21 25 0
-19 -21 -25 0
11 18 26 0
-11 -18 -26 0
19 22 26 0
-19 -22 -26 0
1 17 27 0
-1 -17 -27 0
12 18 27 0
-12 -18 -27 0
19 23 27 0
-19 -23 -27 0
