certificates/rado_a11_c213_N27.drat
19 -27 0
-27 0
20 0
-13 0
-21 -19 0
d -21 -1 -19 0
-19 0
15 0
23 0
9 0
17 0
-22 0
-8 0
-16 0
-2 0
-10 0
-24 0
26 0
18 0
4 0
12 0
6 0
14 0
-3 0
-25 0
-11 0
-5 0
-21 0
-7 0
0
